
Value of objective function: 256.15

Actual values of the variables:
X[337321_1_0]                   5
X[337321_2_0]                   0
X[337321_3_0]                   0
X[337321_4_0]                   0
X[337321_5_0]                   0
X[337339_1_0]                   5
X[337339_2_0]                   0
X[337339_3_0]                   0
X[337339_4_0]                   0
X[337339_5_0]                   0
X[337347_1_0]                   5
X[337347_2_0]                   0
X[337347_3_0]                   0
X[337347_4_0]                   0
X[337347_5_0]                   0
X[337353_1_0]                   5
X[337353_2_0]                   0
X[337353_3_0]                   0
X[337353_4_0]                   0
X[337353_5_0]                   0
X[337366_1_0]                   5
X[337366_2_0]                   0
X[337366_3_0]                   0
X[337366_4_0]                   0
X[337366_5_0]                   0
X[337372_1_0]                   5
X[337372_2_0]                   0
X[337372_3_0]                   0
X[337372_4_0]                   0
X[337372_5_0]                   0
X[337378_1_0]                   5
X[337378_2_0]                   0
X[337378_3_0]                   0
X[337378_4_0]                   0
X[337378_5_0]                   0
X[337384_1_0]                   5
X[337384_2_0]                   0
X[337384_3_0]                   0
X[337384_4_0]                   0
X[337384_5_0]                   0
X[337394_1_0]                   5
X[337394_2_0]                   0
X[337394_3_0]                   0
X[337394_4_0]                   0
X[337394_5_0]                   0
X[337403_1_0]                   5
X[337403_2_0]                   0
X[337403_3_0]                   0
X[337403_4_0]                   0
X[337403_5_0]                   0
X[337414_1_0]                   5
X[337414_2_0]                   0
X[337414_3_0]                   0
X[337414_4_0]                   0
X[337414_5_0]                   0
X[337427_1_0]                   5
X[337427_2_0]                   0
X[337427_3_0]                   0
X[337427_4_0]                   0
X[337427_5_0]                   0
X[337431_1_0]                   5
X[337431_2_0]                   0
X[337431_3_0]                   0
X[337431_4_0]                   0
X[337431_5_0]                   0
X[337443_1_0]                   5
X[337443_2_0]                   0
X[337443_3_0]                   0
X[337443_4_0]                   0
X[337443_5_0]                   0
X[337447_1_0]                   5
X[337447_2_0]                   0
X[337447_3_0]                   0
X[337447_4_0]                   0
X[337447_5_0]                   0
X[337493_1_0]                   5
X[337493_2_0]                   0
X[337493_3_0]                   0
X[337493_4_0]                   0
X[337493_5_0]                   0
X[337496_1_0]                   5
X[337496_2_0]                   0
X[337496_3_0]                   0
X[337496_4_0]                   0
X[337496_5_0]                   0
X[337509_1_0]                   5
X[337509_2_0]                   0
X[337509_3_0]                   0
X[337509_4_0]                   0
X[337509_5_0]                   0
X[337513_1_0]                   5
X[337513_2_0]                   0
X[337513_3_0]                   0
X[337513_4_0]                   0
X[337513_5_0]                   0
X[337519_1_0]                   5
X[337519_2_0]                   0
X[337519_3_0]                   0
X[337519_4_0]                   0
X[337519_5_0]                   0
X[337527_1_0]                   5
X[337527_2_0]                   0
X[337527_3_0]                   0
X[337527_4_0]                   0
X[337527_5_0]                   0
X[337539_1_0]                   5
X[337539_2_0]                   0
X[337539_3_0]                   0
X[337539_4_0]                   0
X[337539_5_0]                   0
X[337544_1_0]                   5
X[337544_2_0]                   0
X[337544_3_0]                   0
X[337544_4_0]                   0
X[337544_5_0]                   0
X[337551_1_0]                   5
X[337551_2_0]                   0
X[337551_3_0]                   0
X[337551_4_0]                   0
X[337551_5_0]                   0
X[337568_1_0]                   5
X[337568_2_0]                   0
X[337568_3_0]                   0
X[337568_4_0]                   0
X[337568_5_0]                   0
X[337582_1_0]                   5
X[337582_2_0]                   0
X[337582_3_0]                   0
X[337582_4_0]                   0
X[337582_5_0]                   0
X[337588_1_0]                   5
X[337588_2_0]                   0
X[337588_3_0]                   0
X[337588_4_0]                   0
X[337588_5_0]                   0
X[337591_1_0]                   5
X[337591_2_0]                   0
X[337591_3_0]                   0
X[337591_4_0]                   0
X[337591_5_0]                   0
X[337603_1_0]                   5
X[337603_2_0]                   0
X[337603_3_0]                   0
X[337603_4_0]                   0
X[337603_5_0]                   0
X[337609_1_0]                   5
X[337609_2_0]                   0
X[337609_3_0]                   0
X[337609_4_0]                   0
X[337609_5_0]                   0
X[337616_1_0]                   5
X[337616_2_0]                   0
X[337616_3_0]                   0
X[337616_4_0]                   0
X[337616_5_0]                   0
X[337630_1_0]                   5
X[337630_2_0]                   0
X[337630_3_0]                   0
X[337630_4_0]                   0
X[337630_5_0]                   0
X[337634_1_0]                   5
X[337634_2_0]                   0
X[337634_3_0]                   0
X[337634_4_0]                   0
X[337634_5_0]                   0
X[337650_1_0]                   5
X[337650_2_0]                   0
X[337650_3_0]                   0
X[337650_4_0]                   0
X[337650_5_0]                   0
X[337660_1_0]                   5
X[337660_2_0]                   0
X[337660_3_0]                   0
X[337660_4_0]                   0
X[337660_5_0]                   0
X[337666_1_0]                   5
X[337666_2_0]                   0
X[337666_3_0]                   0
X[337666_4_0]                   0
X[337666_5_0]                   0
X[337677_1_0]                   5
X[337677_2_0]                   0
X[337677_3_0]                   0
X[337677_4_0]                   0
X[337677_5_0]                   0
X[337737_1_0]                   5
X[337737_2_0]                   0
X[337737_3_0]                   0
X[337737_4_0]                   0
X[337737_5_0]                   0
X[337750_1_0]                   5
X[337750_2_0]                   0
X[337750_3_0]                   0
X[337750_4_0]                   0
X[337750_5_0]                   0
X[337762_1_0]                   5
X[337762_2_0]                   0
X[337762_3_0]                   0
X[337762_4_0]                   0
X[337762_5_0]                   0
X[337776_1_0]                   5
X[337776_2_0]                   0
X[337776_3_0]                   0
X[337776_4_0]                   0
X[337776_5_0]                   0
X[337784_1_0]                   5
X[337784_2_0]                   0
X[337784_3_0]                   0
X[337784_4_0]                   0
X[337784_5_0]                   0
X[337795_1_0]                   5
X[337795_2_0]                   0
X[337795_3_0]                   0
X[337795_4_0]                   0
X[337795_5_0]                   0
X[337799_1_0]                   5
X[337799_2_0]                   0
X[337799_3_0]                   0
X[337799_4_0]                   0
X[337799_5_0]                   0
X[337811_1_0]                   5
X[337811_2_0]                   0
X[337811_3_0]                   0
X[337811_4_0]                   0
X[337811_5_0]                   0
X[337818_1_0]                   5
X[337818_2_0]                   0
X[337818_3_0]                   0
X[337818_4_0]                   0
X[337818_5_0]                   0
X[337827_1_0]                   5
X[337827_2_0]                   0
X[337827_3_0]                   0
X[337827_4_0]                   0
X[337827_5_0]                   0
X[337836_1_0]                   5
X[337836_2_0]                   0
X[337836_3_0]                   0
X[337836_4_0]                   0
X[337836_5_0]                   0
X[337844_1_0]                   5
X[337844_2_0]                   0
X[337844_3_0]                   0
X[337844_4_0]                   0
X[337844_5_0]                   0
X[337848_1_0]                   5
X[337848_2_0]                   0
X[337848_3_0]                   0
X[337848_4_0]                   0
X[337848_5_0]                   0
X[337859_1_0]                   5
X[337859_2_0]                   0
X[337859_3_0]                   0
X[337859_4_0]                   0
X[337859_5_0]                   0
X[337869_1_0]                   5
X[337869_2_0]                   0
X[337869_3_0]                   0
X[337869_4_0]                   0
X[337869_5_0]                   0
X[337928_1_0]                   5
X[337928_2_0]                   0
X[337928_3_0]                   0
X[337928_4_0]                   0
X[337928_5_0]                   0
X[338131_1_0]                   5
X[338131_2_0]                   0
X[338131_3_0]                   0
X[338131_4_0]                   0
X[338131_5_0]                   0
X[338136_1_0]                   5
X[338136_2_0]                   0
X[338136_3_0]                   0
X[338136_4_0]                   0
X[338136_5_0]                   0
X[338156_1_0]                   5
X[338156_2_0]                   0
X[338156_3_0]                   0
X[338156_4_0]                   0
X[338156_5_0]                   0
X[338280_1_0]                   5
X[338280_2_0]                   0
X[338280_3_0]                   0
X[338280_4_0]                   0
X[338280_5_0]                   0
X[338291_1_0]                   5
X[338291_2_0]                   0
X[338291_3_0]                   0
X[338291_4_0]                   0
X[338291_5_0]                   0
X[338411_1_0]                   5
X[338411_2_0]                   0
X[338411_3_0]                   0
X[338411_4_0]                   0
X[338411_5_0]                   0
X[338470_1_0]                   5
X[338470_2_0]                   0
X[338470_3_0]                   0
X[338470_4_0]                   0
X[338470_5_0]                   0
X[338477_1_0]                   5
X[338477_2_0]                   0
X[338477_3_0]                   0
X[338477_4_0]                   0
X[338477_5_0]                   0
X[338489_1_0]                   5
X[338489_2_0]                   0
X[338489_3_0]                   0
X[338489_4_0]                   0
X[338489_5_0]                   0
X[338492_1_0]                   5
X[338492_2_0]                   0
X[338492_3_0]                   0
X[338492_4_0]                   0
X[338492_5_0]                   0
X[338507_1_0]                   5
X[338507_2_0]                   0
X[338507_3_0]                   0
X[338507_4_0]                   0
X[338507_5_0]                   0
X[338510_1_0]                   5
X[338510_2_0]                   0
X[338510_3_0]                   0
X[338510_4_0]                   0
X[338510_5_0]                   0
X[338521_1_0]                   5
X[338521_2_0]                   0
X[338521_3_0]                   0
X[338521_4_0]                   0
X[338521_5_0]                   0
X[338531_1_0]                   5
X[338531_2_0]                   0
X[338531_3_0]                   0
X[338531_4_0]                   0
X[338531_5_0]                   0
X[338532_1_0]                   5
X[338532_2_0]                   0
X[338532_3_0]                   0
X[338532_4_0]                   0
X[338532_5_0]                   0
X[338546_1_0]                   5
X[338546_2_0]                   0
X[338546_3_0]                   0
X[338546_4_0]                   0
X[338546_5_0]                   0
X[338548_1_0]                   5
X[338548_2_0]                   0
X[338548_3_0]                   0
X[338548_4_0]                   0
X[338548_5_0]                   0
X[338556_1_0]                   5
X[338556_2_0]                   0
X[338556_3_0]                   0
X[338556_4_0]                   0
X[338556_5_0]                   0
X[338568_1_0]                   5
X[338568_2_0]                   0
X[338568_3_0]                   0
X[338568_4_0]                   0
X[338568_5_0]                   0
X[338573_1_0]                   5
X[338573_2_0]                   0
X[338573_3_0]                   0
X[338573_4_0]                   0
X[338573_5_0]                   0
X[338586_1_0]                   5
X[338586_2_0]                   0
X[338586_3_0]                   0
X[338586_4_0]                   0
X[338586_5_0]                   0
X[338589_1_0]                   5
X[338589_2_0]                   0
X[338589_3_0]                   0
X[338589_4_0]                   0
X[338589_5_0]                   0
X[338603_1_0]                   5
X[338603_2_0]                   0
X[338603_3_0]                   0
X[338603_4_0]                   0
X[338603_5_0]                   0
X[338604_1_0]                   5
X[338604_2_0]                   0
X[338604_3_0]                   0
X[338604_4_0]                   0
X[338604_5_0]                   0
X[338614_1_0]                   5
X[338614_2_0]                   0
X[338614_3_0]                   0
X[338614_4_0]                   0
X[338614_5_0]                   0
X[338661_1_0]                   5
X[338661_2_0]                   0
X[338661_3_0]                   0
X[338661_4_0]                   0
X[338661_5_0]                   0
X[338794_1_0]                   5
X[338794_2_0]                   0
X[338794_3_0]                   0
X[338794_4_0]                   0
X[338794_5_0]                   0
X[338818_1_0]                   5
X[338818_2_0]                   0
X[338818_3_0]                   0
X[338818_4_0]                   0
X[338818_5_0]                   0
X[338827_1_0]                   5
X[338827_2_0]                   0
X[338827_3_0]                   0
X[338827_4_0]                   0
X[338827_5_0]                   0
X[338849_1_0]                   5
X[338849_2_0]                   0
X[338849_3_0]                   0
X[338849_4_0]                   0
X[338849_5_0]                   0
X[338864_1_0]                   5
X[338864_2_0]                   0
X[338864_3_0]                   0
X[338864_4_0]                   0
X[338864_5_0]                   0
X[338865_1_0]                   5
X[338865_2_0]                   0
X[338865_3_0]                   0
X[338865_4_0]                   0
X[338865_5_0]                   0
X[338880_1_0]                   5
X[338880_2_0]                   0
X[338880_3_0]                   0
X[338880_4_0]                   0
X[338880_5_0]                   0
X[338887_1_0]                   5
X[338887_2_0]                   0
X[338887_3_0]                   0
X[338887_4_0]                   0
X[338887_5_0]                   0
X[338894_1_0]                   5
X[338894_2_0]                   0
X[338894_3_0]                   0
X[338894_4_0]                   0
X[338894_5_0]                   0
X[338904_1_0]                   5
X[338904_2_0]                   0
X[338904_3_0]                   0
X[338904_4_0]                   0
X[338904_5_0]                   0
X[338911_1_0]                   5
X[338911_2_0]                   0
X[338911_3_0]                   0
X[338911_4_0]                   0
X[338911_5_0]                   0
X[339014_1_0]                   5
X[339014_2_0]                   0
X[339014_3_0]                   0
X[339014_4_0]                   0
X[339014_5_0]                   0
X[339330_1_0]                   5
X[339330_2_0]                   0
X[339330_3_0]                   0
X[339330_4_0]                   0
X[339330_5_0]                   0
X[339602_1_0]                   5
X[339602_2_0]                   0
X[339602_3_0]                   0
X[339602_4_0]                   0
X[339602_5_0]                   0
X[339606_1_0]                   5
X[339606_2_0]                   0
X[339606_3_0]                   0
X[339606_4_0]                   0
X[339606_5_0]                   0
X[339614_1_0]                   5
X[339614_2_0]                   0
X[339614_3_0]                   0
X[339614_4_0]                   0
X[339614_5_0]                   0
X[339620_1_0]                   5
X[339620_2_0]                   0
X[339620_3_0]                   0
X[339620_4_0]                   0
X[339620_5_0]                   0
X[339630_1_0]                   5
X[339630_2_0]                   0
X[339630_3_0]                   0
X[339630_4_0]                   0
X[339630_5_0]                   0
X[339637_1_0]                   5
X[339637_2_0]                   0
X[339637_3_0]                   0
X[339637_4_0]                   0
X[339637_5_0]                   0
X[339661_1_0]                   5
X[339661_2_0]                   0
X[339661_3_0]                   0
X[339661_4_0]                   0
X[339661_5_0]                   0
X[339667_1_0]                   5
X[339667_2_0]                   0
X[339667_3_0]                   0
X[339667_4_0]                   0
X[339667_5_0]                   0
X[339675_1_0]                   5
X[339675_2_0]                   0
X[339675_3_0]                   0
X[339675_4_0]                   0
X[339675_5_0]                   0
X[339685_1_0]                   5
X[339685_2_0]                   0
X[339685_3_0]                   0
X[339685_4_0]                   0
X[339685_5_0]                   0
X[339697_1_0]                   5
X[339697_2_0]                   0
X[339697_3_0]                   0
X[339697_4_0]                   0
X[339697_5_0]                   0
X[339701_1_0]                   5
X[339701_2_0]                   0
X[339701_3_0]                   0
X[339701_4_0]                   0
X[339701_5_0]                   0
X[339708_1_0]                   5
X[339708_2_0]                   0
X[339708_3_0]                   0
X[339708_4_0]                   0
X[339708_5_0]                   0
X[339716_1_0]                   5
X[339716_2_0]                   0
X[339716_3_0]                   0
X[339716_4_0]                   0
X[339716_5_0]                   0
X[339723_1_0]                   5
X[339723_2_0]                   0
X[339723_3_0]                   0
X[339723_4_0]                   0
X[339723_5_0]                   0
X[339736_1_0]                   5
X[339736_2_0]                   0
X[339736_3_0]                   0
X[339736_4_0]                   0
X[339736_5_0]                   0
X[339745_1_0]                   5
X[339745_2_0]                   0
X[339745_3_0]                   0
X[339745_4_0]                   0
X[339745_5_0]                   0
X[339749_1_0]                   5
X[339749_2_0]                   0
X[339749_3_0]                   0
X[339749_4_0]                   0
X[339749_5_0]                   0
X[339761_1_0]                   5
X[339761_2_0]                   0
X[339761_3_0]                   0
X[339761_4_0]                   0
X[339761_5_0]                   0
X[339763_1_0]                   5
X[339763_2_0]                   0
X[339763_3_0]                   0
X[339763_4_0]                   0
X[339763_5_0]                   0
X[340010_1_0]                   5
X[340010_2_0]                   0
X[340010_3_0]                   0
X[340010_4_0]                   0
X[340010_5_0]                   0
X[340022_1_0]                   5
X[340022_2_0]                   0
X[340022_3_0]                   0
X[340022_4_0]                   0
X[340022_5_0]                   0
X[340025_1_0]                   5
X[340025_2_0]                   0
X[340025_3_0]                   0
X[340025_4_0]                   0
X[340025_5_0]                   0
X[340038_1_0]                   5
X[340038_2_0]                   0
X[340038_3_0]                   0
X[340038_4_0]                   0
X[340038_5_0]                   0
X[340044_1_0]                   5
X[340044_2_0]                   0
X[340044_3_0]                   0
X[340044_4_0]                   0
X[340044_5_0]                   0
X[340054_1_0]                   5
X[340054_2_0]                   0
X[340054_3_0]                   0
X[340054_4_0]                   0
X[340054_5_0]                   0
X[340062_1_0]                   5
X[340062_2_0]                   0
X[340062_3_0]                   0
X[340062_4_0]                   0
X[340062_5_0]                   0
X[340064_1_0]                   5
X[340064_2_0]                   0
X[340064_3_0]                   0
X[340064_4_0]                   0
X[340064_5_0]                   0
X[340075_1_0]                   5
X[340075_2_0]                   0
X[340075_3_0]                   0
X[340075_4_0]                   0
X[340075_5_0]                   0
X[340080_1_0]                   5
X[340080_2_0]                   0
X[340080_3_0]                   0
X[340080_4_0]                   0
X[340080_5_0]                   0
X[340087_1_0]                   5
X[340087_2_0]                   0
X[340087_3_0]                   0
X[340087_4_0]                   0
X[340087_5_0]                   0
X[340099_1_0]                   5
X[340099_2_0]                   0
X[340099_3_0]                   0
X[340099_4_0]                   0
X[340099_5_0]                   0
X[340104_1_0]                   5
X[340104_2_0]                   0
X[340104_3_0]                   0
X[340104_4_0]                   0
X[340104_5_0]                   0
X[340111_1_0]                   5
X[340111_2_0]                   0
X[340111_3_0]                   0
X[340111_4_0]                   0
X[340111_5_0]                   0
X[340119_1_0]                   5
X[340119_2_0]                   0
X[340119_3_0]                   0
X[340119_4_0]                   0
X[340119_5_0]                   0
X[340127_1_0]                   5
X[340127_2_0]                   0
X[340127_3_0]                   0
X[340127_4_0]                   0
X[340127_5_0]                   0
X[340139_1_0]                   5
X[340139_2_0]                   0
X[340139_3_0]                   0
X[340139_4_0]                   0
X[340139_5_0]                   0
X[340145_1_0]                   5
X[340145_2_0]                   0
X[340145_3_0]                   0
X[340145_4_0]                   0
X[340145_5_0]                   0
X[340152_1_0]                   5
X[340152_2_0]                   0
X[340152_3_0]                   0
X[340152_4_0]                   0
X[340152_5_0]                   0
X[340197_1_0]                   5
X[340197_2_0]                   0
X[340197_3_0]                   0
X[340197_4_0]                   0
X[340197_5_0]                   0
X[340211_1_0]                   5
X[340211_2_0]                   0
X[340211_3_0]                   0
X[340211_4_0]                   0
X[340211_5_0]                   0
X[340219_1_0]                   5
X[340219_2_0]                   0
X[340219_3_0]                   0
X[340219_4_0]                   0
X[340219_5_0]                   0
X[340226_1_0]                   5
X[340226_2_0]                   0
X[340226_3_0]                   0
X[340226_4_0]                   0
X[340226_5_0]                   0
X[340234_1_0]                   5
X[340234_2_0]                   0
X[340234_3_0]                   0
X[340234_4_0]                   0
X[340234_5_0]                   0
X[340249_1_0]                   5
X[340249_2_0]                   0
X[340249_3_0]                   0
X[340249_4_0]                   0
X[340249_5_0]                   0
X[340250_1_0]                   5
X[340250_2_0]                   0
X[340250_3_0]                   0
X[340250_4_0]                   0
X[340250_5_0]                   0
X[340258_1_0]                   5
X[340258_2_0]                   0
X[340258_3_0]                   0
X[340258_4_0]                   0
X[340258_5_0]                   0
X[340270_1_0]                   5
X[340270_2_0]                   0
X[340270_3_0]                   0
X[340270_4_0]                   0
X[340270_5_0]                   0
X[340278_1_0]                   5
X[340278_2_0]                   0
X[340278_3_0]                   0
X[340278_4_0]                   0
X[340278_5_0]                   0
X[340286_1_0]                   5
X[340286_2_0]                   0
X[340286_3_0]                   0
X[340286_4_0]                   0
X[340286_5_0]                   0
X[340291_1_0]                   5
X[340291_2_0]                   0
X[340291_3_0]                   0
X[340291_4_0]                   0
X[340291_5_0]                   0
X[340298_1_0]                   5
X[340298_2_0]                   0
X[340298_3_0]                   0
X[340298_4_0]                   0
X[340298_5_0]                   0
X[340309_1_0]                   5
X[340309_2_0]                   0
X[340309_3_0]                   0
X[340309_4_0]                   0
X[340309_5_0]                   0
X[340315_1_0]                   5
X[340315_2_0]                   0
X[340315_3_0]                   0
X[340315_4_0]                   0
X[340315_5_0]                   0
X[340322_1_0]                   5
X[340322_2_0]                   0
X[340322_3_0]                   0
X[340322_4_0]                   0
X[340322_5_0]                   0
X[340333_1_0]                   5
X[340333_2_0]                   0
X[340333_3_0]                   0
X[340333_4_0]                   0
X[340333_5_0]                   0
X[340345_1_0]                   5
X[340345_2_0]                   0
X[340345_3_0]                   0
X[340345_4_0]                   0
X[340345_5_0]                   0
X[340349_1_0]                   5
X[340349_2_0]                   0
X[340349_3_0]                   0
X[340349_4_0]                   0
X[340349_5_0]                   0
X[340359_1_0]                   5
X[340359_2_0]                   0
X[340359_3_0]                   0
X[340359_4_0]                   0
X[340359_5_0]                   0
X[340364_1_0]                   5
X[340364_2_0]                   0
X[340364_3_0]                   0
X[340364_4_0]                   0
X[340364_5_0]                   0
X[340370_1_0]                   5
X[340370_2_0]                   0
X[340370_3_0]                   0
X[340370_4_0]                   0
X[340370_5_0]                   0
X[340380_1_0]                   5
X[340380_2_0]                   0
X[340380_3_0]                   0
X[340380_4_0]                   0
X[340380_5_0]                   0
X[340391_1_0]                   5
X[340391_2_0]                   0
X[340391_3_0]                   0
X[340391_4_0]                   0
X[340391_5_0]                   0
X[340394_1_0]                   5
X[340394_2_0]                   0
X[340394_3_0]                   0
X[340394_4_0]                   0
X[340394_5_0]                   0
X[340792_1_0]                   5
X[340792_2_0]                   0
X[340792_3_0]                   0
X[340792_4_0]                   0
X[340792_5_0]                   0
X[340798_1_0]                   5
X[340798_2_0]                   0
X[340798_3_0]                   0
X[340798_4_0]                   0
X[340798_5_0]                   0
X[340809_1_0]                   5
X[340809_2_0]                   0
X[340809_3_0]                   0
X[340809_4_0]                   0
X[340809_5_0]                   0
X[340845_1_0]                   5
X[340845_2_0]                   0
X[340845_3_0]                   0
X[340845_4_0]                   0
X[340845_5_0]                   0
X[340867_1_0]                   5
X[340867_2_0]                   0
X[340867_3_0]                   0
X[340867_4_0]                   0
X[340867_5_0]                   0
X[340874_1_0]                   5
X[340874_2_0]                   0
X[340874_3_0]                   0
X[340874_4_0]                   0
X[340874_5_0]                   0
X[340893_1_0]                   5
X[340893_2_0]                   0
X[340893_3_0]                   0
X[340893_4_0]                   0
X[340893_5_0]                   0
X[340908_1_0]                   5
X[340908_2_0]                   0
X[340908_3_0]                   0
X[340908_4_0]                   0
X[340908_5_0]                   0
X[340928_1_0]                   5
X[340928_2_0]                   0
X[340928_3_0]                   0
X[340928_4_0]                   0
X[340928_5_0]                   0
X[340935_1_0]                   5
X[340935_2_0]                   0
X[340935_3_0]                   0
X[340935_4_0]                   0
X[340935_5_0]                   0
X[340943_1_0]                   5
X[340943_2_0]                   0
X[340943_3_0]                   0
X[340943_4_0]                   0
X[340943_5_0]                   0
X[340950_1_0]                   5
X[340950_2_0]                   0
X[340950_3_0]                   0
X[340950_4_0]                   0
X[340950_5_0]                   0
X[340958_1_0]                   5
X[340958_2_0]                   0
X[340958_3_0]                   0
X[340958_4_0]                   0
X[340958_5_0]                   0
X[340968_1_0]                   5
X[340968_2_0]                   0
X[340968_3_0]                   0
X[340968_4_0]                   0
X[340968_5_0]                   0
X[340974_1_0]                   5
X[340974_2_0]                   0
X[340974_3_0]                   0
X[340974_4_0]                   0
X[340974_5_0]                   0
X[340987_1_0]                   5
X[340987_2_0]                   0
X[340987_3_0]                   0
X[340987_4_0]                   0
X[340987_5_0]                   0
X[340996_1_0]                   5
X[340996_2_0]                   0
X[340996_3_0]                   0
X[340996_4_0]                   0
X[340996_5_0]                   0
X[341000_1_0]                   5
X[341000_2_0]                   0
X[341000_3_0]                   0
X[341000_4_0]                   0
X[341000_5_0]                   0
X[341012_1_0]                   5
X[341012_2_0]                   0
X[341012_3_0]                   0
X[341012_4_0]                   0
X[341012_5_0]                   0
X[341015_1_0]                   5
X[341015_2_0]                   0
X[341015_3_0]                   0
X[341015_4_0]                   0
X[341015_5_0]                   0
X[341023_1_0]                   5
X[341023_2_0]                   0
X[341023_3_0]                   0
X[341023_4_0]                   0
X[341023_5_0]                   0
X[341033_1_0]                   5
X[341033_2_0]                   0
X[341033_3_0]                   0
X[341033_4_0]                   0
X[341033_5_0]                   0
X[341038_1_0]                   5
X[341038_2_0]                   0
X[341038_3_0]                   0
X[341038_4_0]                   0
X[341038_5_0]                   0
X[341046_1_0]                   5
X[341046_2_0]                   0
X[341046_3_0]                   0
X[341046_4_0]                   0
X[341046_5_0]                   0
X[341061_1_0]                   5
X[341061_2_0]                   0
X[341061_3_0]                   0
X[341061_4_0]                   0
X[341061_5_0]                   0
X[341063_1_0]                   5
X[341063_2_0]                   0
X[341063_3_0]                   0
X[341063_4_0]                   0
X[341063_5_0]                   0
X[341075_1_0]                   5
X[341075_2_0]                   0
X[341075_3_0]                   0
X[341075_4_0]                   0
X[341075_5_0]                   0
X[341082_1_0]                   5
X[341082_2_0]                   0
X[341082_3_0]                   0
X[341082_4_0]                   0
X[341082_5_0]                   0
X[341086_1_0]                   5
X[341086_2_0]                   0
X[341086_3_0]                   0
X[341086_4_0]                   0
X[341086_5_0]                   0
X[341101_1_0]                   5
X[341101_2_0]                   0
X[341101_3_0]                   0
X[341101_4_0]                   0
X[341101_5_0]                   0
X[341124_1_0]                   5
X[341124_2_0]                   0
X[341124_3_0]                   0
X[341124_4_0]                   0
X[341124_5_0]                   0
X[341129_1_0]                   5
X[341129_2_0]                   0
X[341129_3_0]                   0
X[341129_4_0]                   0
X[341129_5_0]                   0
X[341136_1_0]                   5
X[341136_2_0]                   0
X[341136_3_0]                   0
X[341136_4_0]                   0
X[341136_5_0]                   0
X[341142_1_0]                   5
X[341142_2_0]                   0
X[341142_3_0]                   0
X[341142_4_0]                   0
X[341142_5_0]                   0
X[341154_1_0]                   5
X[341154_2_0]                   0
X[341154_3_0]                   0
X[341154_4_0]                   0
X[341154_5_0]                   0
X[341163_1_0]                   5
X[341163_2_0]                   0
X[341163_3_0]                   0
X[341163_4_0]                   0
X[341163_5_0]                   0
X[341171_1_0]                   5
X[341171_2_0]                   0
X[341171_3_0]                   0
X[341171_4_0]                   0
X[341171_5_0]                   0
X[341271_1_0]                   5
X[341271_2_0]                   0
X[341271_3_0]                   0
X[341271_4_0]                   0
X[341271_5_0]                   0
X[341389_1_0]                   5
X[341389_2_0]                   0
X[341389_3_0]                   0
X[341389_4_0]                   0
X[341389_5_0]                   0
X[341655_1_0]                   5
X[341655_2_0]                   0
X[341655_3_0]                   0
X[341655_4_0]                   0
X[341655_5_0]                   0
X[341774_1_0]                   5
X[341774_2_0]                   0
X[341774_3_0]                   0
X[341774_4_0]                   0
X[341774_5_0]                   0
X[341782_1_0]                   5
X[341782_2_0]                   0
X[341782_3_0]                   0
X[341782_4_0]                   0
X[341782_5_0]                   0
X[341804_1_0]                   5
X[341804_2_0]                   0
X[341804_3_0]                   0
X[341804_4_0]                   0
X[341804_5_0]                   0
X[341814_1_0]                   5
X[341814_2_0]                   0
X[341814_3_0]                   0
X[341814_4_0]                   0
X[341814_5_0]                   0
X[341822_1_0]                   5
X[341822_2_0]                   0
X[341822_3_0]                   0
X[341822_4_0]                   0
X[341822_5_0]                   0
X[341876_1_0]                   5
X[341876_2_0]                   0
X[341876_3_0]                   0
X[341876_4_0]                   0
X[341876_5_0]                   0
X[341884_1_0]                   5
X[341884_2_0]                   0
X[341884_3_0]                   0
X[341884_4_0]                   0
X[341884_5_0]                   0
X[341911_1_0]                   5
X[341911_2_0]                   0
X[341911_3_0]                   0
X[341911_4_0]                   0
X[341911_5_0]                   0
X[341941_1_0]                   5
X[341941_2_0]                   0
X[341941_3_0]                   0
X[341941_4_0]                   0
X[341941_5_0]                   0
X[341955_1_0]                   5
X[341955_2_0]                   0
X[341955_3_0]                   0
X[341955_4_0]                   0
X[341955_5_0]                   0
X[341969_1_0]                   5
X[341969_2_0]                   0
X[341969_3_0]                   0
X[341969_4_0]                   0
X[341969_5_0]                   0
X[341972_1_0]                   5
X[341972_2_0]                   0
X[341972_3_0]                   0
X[341972_4_0]                   0
X[341972_5_0]                   0
X[341986_1_0]                   5
X[341986_2_0]                   0
X[341986_3_0]                   0
X[341986_4_0]                   0
X[341986_5_0]                   0
X[342346_1_0]                   5
X[342346_2_0]                   0
X[342346_3_0]                   0
X[342346_4_0]                   0
X[342346_5_0]                   0
X[342712_1_0]                   5
X[342712_2_0]                   0
X[342712_3_0]                   0
X[342712_4_0]                   0
X[342712_5_0]                   0
X[343027_1_0]                   5
X[343027_2_0]                   0
X[343027_3_0]                   0
X[343027_4_0]                   0
X[343027_5_0]                   0
X[343039_1_0]                   5
X[343039_2_0]                   0
X[343039_3_0]                   0
X[343039_4_0]                   0
X[343039_5_0]                   0
X[343045_1_0]                   5
X[343045_2_0]                   0
X[343045_3_0]                   0
X[343045_4_0]                   0
X[343045_5_0]                   0
X[343062_1_0]                   5
X[343062_2_0]                   0
X[343062_3_0]                   0
X[343062_4_0]                   0
X[343062_5_0]                   0
X[343065_1_0]                   5
X[343065_2_0]                   0
X[343065_3_0]                   0
X[343065_4_0]                   0
X[343065_5_0]                   0
X[343072_1_0]                   5
X[343072_2_0]                   0
X[343072_3_0]                   0
X[343072_4_0]                   0
X[343072_5_0]                   0
X[343080_1_0]                   5
X[343080_2_0]                   0
X[343080_3_0]                   0
X[343080_4_0]                   0
X[343080_5_0]                   0
X[343088_1_0]                   5
X[343088_2_0]                   0
X[343088_3_0]                   0
X[343088_4_0]                   0
X[343088_5_0]                   0
X[343136_1_0]                   5
X[343136_2_0]                   0
X[343136_3_0]                   0
X[343136_4_0]                   0
X[343136_5_0]                   0
X[343152_1_0]                   5
X[343152_2_0]                   0
X[343152_3_0]                   0
X[343152_4_0]                   0
X[343152_5_0]                   0
X[343412_1_0]                   5
X[343412_2_0]                   0
X[343412_3_0]                   0
X[343412_4_0]                   0
X[343412_5_0]                   0
X[344149_1_0]                   5
X[344149_2_0]                   0
X[344149_3_0]                   0
X[344149_4_0]                   0
X[344149_5_0]                   0
X[344584_1_0]                   5
X[344584_2_0]                   0
X[344584_3_0]                   0
X[344584_4_0]                   0
X[344584_5_0]                   0
X[344589_1_0]                   5
X[344589_2_0]                   0
X[344589_3_0]                   0
X[344589_4_0]                   0
X[344589_5_0]                   0
X[344634_1_0]                   5
X[344634_2_0]                   0
X[344634_3_0]                   0
X[344634_4_0]                   0
X[344634_5_0]                   0
X[344650_1_0]                   5
X[344650_2_0]                   0
X[344650_3_0]                   0
X[344650_4_0]                   0
X[344650_5_0]                   0
X[344653_1_0]                   5
X[344653_2_0]                   0
X[344653_3_0]                   0
X[344653_4_0]                   0
X[344653_5_0]                   0
X[344662_1_0]                   5
X[344662_2_0]                   0
X[344662_3_0]                   0
X[344662_4_0]                   0
X[344662_5_0]                   0
X[344671_1_0]                   5
X[344671_2_0]                   0
X[344671_3_0]                   0
X[344671_4_0]                   0
X[344671_5_0]                   0
